c Random generated cnf formula, satisfiable: true
p cnf 10 50
-3 -7 -8 0
-7 10 2 0
-4 10 3 0
8 3 -5 0
2 -6 -7 0
3 5 6 0
-7 -10 -8 0
-8 5 7 0
-6 -1 -7 0
9 -5 1 0
-5 4 -2 0
4 6 -7 0
3 6 5 0
3 4 6 0
3 -2 -8 0
-2 8 1 0
1 10 7 0
5 9 7 0
-1 -9 10 0
8 -10 7 0
1 10 -4 0
-9 -10 -3 0
-3 -10 8 0
-1 -3 5 0
-5 8 3 0
1 -3 -4 0
2 3 10 0
1 -10 7 0
5 -8 3 0
-6 5 2 0
2 -10 -9 0
9 3 -2 0
3 7 1 0
5 -2 -8 0
-3 -4 1 0
-8 -4 -9 0
-3 9 6 0
-9 3 -8 0
-8 -4 -9 0
-5 3 2 0
8 -10 -3 0
-9 -5 -4 0
-10 4 8 0
4 -3 10 0
4 -3 1 0
3 2 9 0
4 10 -5 0
-5 -2 -7 0
2 -10 -3 0
-2 -10 8 0
